(set-info :source  loris-7.ddns.comp.nus.edu.sg/~project/hip/) 
;Variables declarations
(declare-fun q_5426 () Int)
(declare-fun height_5421 () Int)
(declare-fun m () Int)
(declare-fun size2_5427 () Int)
(declare-fun n () Int)
(declare-fun height2_5428 () Int)
(declare-fun height1_5425 () Int)
(declare-fun size1_5424 () Int)
(declare-fun m_5441 () Int)
(declare-fun n_5442 () Int)
(declare-fun v_node_234_1476_primed () Int)
(declare-fun flted_220_5455 () Int)
(declare-fun n1_5456 () Int)
(declare-fun v_node_233_5461 () Int)
;Relations declarations
;Axioms assertions
;Antecedent
(assert (or (and (and (< q_5426 1) (= size2_5427 0)) (= height2_5428 0)) (and (and (<= 1 height2_5428) (<= 1 size2_5427)) (> q_5426 0))))
(assert (= height_5421 n))
(assert (= m (+ (+ size2_5427 1) size1_5424)))
(assert (<= height2_5428 (+ 1 height1_5425)))
(assert (<= height1_5425 (+ 1 height2_5428)))
(assert (exists ((max_5468 Int)) (and (= n (+ 1 max_5468)) (or (and (= max_5468 height1_5425) (>= height1_5425 height2_5428)) (and (= max_5468 height2_5428) (< height1_5425 height2_5428))))))
(assert (<= 0 n_5442))
(assert (<= 0 m_5441))
(assert (<= 0 height1_5425))
(assert (<= 0 size1_5424))
(assert (= n_5442 height1_5425))
(assert (= m_5441 size1_5424))
(assert (= flted_220_5455 (+ 1 m_5441)))
(assert (<= n_5442 n1_5456))
(assert (<= n1_5456 (+ 1 n_5442)))
(assert (= v_node_234_1476_primed v_node_233_5461))
(assert (or (and (and (< v_node_233_5461 1) (= flted_220_5455 0)) (= n1_5456 0)) (and (and (<= 1 n1_5456) (<= 1 flted_220_5455)) (> v_node_233_5461 0))))
;Negation of Consequence
(assert (not (or (= flted_220_5455 0) (or (= n1_5456 0) (< v_node_233_5461 1)))))
(check-sat)